50
1000
240
240
239
239
238
237
236
234
233
231
228
228
223
223
222
219
218
218
215
213
212
211
209
204
198
197
196
195
188
186
185
185
184
182
182
182
181
179
178
178
178
177
176
173
170
165
165
162
162
162
